1773135
2,62,15,58,16,26,44,64,19,3,46,12,53,0,4,18,48,22,59,28,24,29,40,5,63,66,37,6,33,10,65,25,54,45,42,20,67,52,36,34,50,38,61,43,13,9,17,56,32,51,21,30,27,49,35,7,14,57,8,1,47,23,60,11,31,39,55,41,2